
Gurobi 10.0.1 (linux64) logging started Mon 14 Aug 2023 07:13:14 PM CDT

Set parameter LogFile to value "/home/dlcole3/graph_abstraction/plasmoexamples/SHP_serial/SHP_reserve_requirements/gurobi_logs/logfile27.log"
Set parameter NodefileStart to value 0.0005
Set parameter TimeLimit to value 36000
Gurobi Optimizer version 10.0.1 build v10.0.1rc0 (linux64)

CPU model: Intel(R) Xeon(R) CPU E5-2698 v4 @ 2.20GHz, instruction set [SSE2|AVX|AVX2]
Thread count: 40 physical cores, 80 logical processors, using up to 8 threads


Warning: excessive time spent in model updates.
Consider calling update less frequently.

Optimize a model with 1105538 rows, 641709 columns and 4644125 nonzeros
Model fingerprint: 0xa1f4b9eb
Variable types: 599982 continuous, 41727 integer (41727 binary)
Coefficient statistics:
  Matrix range     [5e-02, 2e+04]
  Objective range  [2e-01, 8e+04]
  Bounds range     [5e-02, 2e+04]
  RHS range        [4e-20, 7e+03]
Presolve removed 263115 rows and 109774 columns (presolve time = 5s) ...
Presolve removed 276854 rows and 116407 columns (presolve time = 10s) ...
Presolve removed 278950 rows and 119412 columns (presolve time = 15s) ...
Presolve removed 287685 rows and 123973 columns (presolve time = 20s) ...
Presolve removed 291525 rows and 124154 columns (presolve time = 25s) ...
Presolve removed 292225 rows and 124870 columns (presolve time = 30s) ...
Presolve removed 292265 rows and 124920 columns (presolve time = 35s) ...
Presolve removed 292565 rows and 124940 columns (presolve time = 40s) ...
Sparsify removed 201044 nonzeros (5%)
Presolve removed 292565 rows and 182843 columns (presolve time = 46s) ...
Presolve removed 292565 rows and 122810 columns
Presolve time: 45.54s
Presolved: 812973 rows, 518899 columns, 3980351 nonzeros
Variable types: 485164 continuous, 33735 integer (33668 binary)

Deterministic concurrent LP optimizer: primal simplex, dual simplex, and barrier
Showing barrier log only...

Root barrier log...

Elapsed ordering time = 5s
Elapsed ordering time = 17s
Elapsed ordering time = 20s
Elapsed ordering time = 25s
Elapsed ordering time = 30s
Elapsed ordering time = 35s
Elapsed ordering time = 40s
Elapsed ordering time = 46s
Elapsed ordering time = 50s
Elapsed ordering time = 55s
Elapsed ordering time = 59s
Elapsed ordering time = 61s
Elapsed ordering time = 65s
Elapsed ordering time = 70s
Ordering time: 71.49s

Barrier statistics:
 Dense cols : 148
 AA' NZ     : 2.588e+07
 Factor NZ  : 3.846e+08 (roughly 3.6 GB of memory)
 Factor Ops : 1.849e+12 (roughly 17 seconds per iteration)
 Threads    : 5

                  Objective                Residual
Iter       Primal          Dual         Primal    Dual     Compl     Time
   0  -2.25028928e+11 -1.80670099e+13  1.23e+04 8.43e+03  1.15e+08   141s
   1  -1.61708045e+11 -1.33474783e+13  9.28e+03 1.07e+05  7.67e+07   149s
   2  -1.16640989e+11 -8.52102104e+12  6.77e+03 1.96e+04  5.00e+07   158s
   3  -2.75671993e+10 -3.91061437e+12  1.79e+03 1.82e+02  1.33e+07   168s
   4  -7.59188115e+09 -1.85531565e+12  6.84e+02 2.83e+02  4.89e+06   178s
   5   2.85079869e+09 -8.38585327e+11  1.36e+02 7.49e+02  1.14e+06   188s
   6   4.36136012e+09 -3.09219420e+11  6.18e+01 4.19e+01  3.87e+05   201s
   7   4.77291459e+09 -1.35664099e+11  1.35e+01 1.03e+02  1.13e+05   215s
   8   3.20240345e+09 -4.16228379e+10  2.96e+00 1.26e+01  2.96e+04   231s
   9   1.07466197e+09 -7.58155430e+09  7.44e-01 3.55e+00  5.37e+03   246s
  10   1.08631605e+08 -6.41800987e+08  1.69e-02 1.51e-01  4.39e+02   265s
  11   7.81305013e+07 -1.28351919e+08  5.13e-03 3.47e-02  1.20e+02   282s
  12   6.01763779e+07 -1.07941353e+07  1.52e-03 9.84e-03  4.14e+01   302s
  13   5.11333238e+07  1.23674193e+07  6.02e-04 5.59e-03  2.26e+01   320s
  14   4.46966842e+07  2.54515741e+07  1.78e-04 2.91e-03  1.12e+01   338s
  15   4.22474589e+07  3.39648430e+07  7.16e-05 1.13e-03  4.82e+00   356s
  16   4.14336336e+07  3.67743089e+07  4.52e-05 6.05e-04  2.71e+00   372s
  17   4.06900042e+07  3.80339336e+07  2.38e-05 3.57e-04  1.55e+00   390s
  18   4.03419518e+07  3.88556672e+07  1.49e-05 1.87e-04  8.65e-01   408s
  19   4.01905445e+07  3.90877503e+07  1.14e-05 1.37e-04  6.42e-01   424s
  20   4.00451168e+07  3.93672995e+07  8.05e-06 7.23e-05  3.95e-01   440s
  21   3.99264499e+07  3.94791105e+07  5.32e-06 4.68e-05  2.60e-01   457s
  22   3.98336795e+07  3.95559527e+07  3.99e-06 2.89e-05  1.62e-01   473s
  23   3.97833603e+07  3.96069015e+07  2.19e-06 1.66e-05  1.03e-01   490s
  24   3.97546136e+07  3.96302496e+07  3.83e-06 1.07e-05  7.24e-02   506s
  25   3.97343144e+07  3.96418452e+07  2.97e-06 7.82e-06  5.38e-02   523s
  26   3.97161758e+07  3.96531089e+07  4.70e-06 5.11e-06  3.67e-02   541s
  27   3.96990194e+07  3.96592504e+07  1.97e-06 3.64e-06  2.32e-02   560s
  28   3.96920214e+07  3.96671499e+07  2.04e-06 1.80e-06  1.45e-02   582s
  29   3.96830530e+07  3.96711589e+07  3.30e-06 8.51e-07  6.93e-03   615s
  30   3.96811809e+07  3.96730224e+07  5.05e-06 4.16e-07  4.75e-03   643s
  31   3.96790708e+07  3.96739427e+07  6.64e-06 1.90e-07  2.99e-03   671s
  32   3.96782924e+07  3.96741529e+07  6.39e-06 1.44e-07  2.41e-03   691s
  33   3.96772591e+07  3.96744083e+07  4.37e-06 8.79e-08  1.66e-03   711s
  34   3.96765314e+07  3.96746463e+07  3.15e-06 4.22e-08  1.10e-03   731s
  35   3.96759712e+07  3.96746805e+07  2.18e-06 3.44e-08  7.52e-04   749s
  36   3.96758120e+07  3.96747475e+07  1.91e-06 2.24e-08  6.20e-04   768s
  37   3.96754892e+07  3.96747718e+07  1.30e-06 1.71e-08  4.18e-04   786s
  38   3.96753196e+07  3.96748083e+07  9.25e-07 9.86e-09  2.98e-04   807s
  39   3.96751784e+07  3.96748355e+07  6.55e-07 5.21e-09  2.00e-04   829s
  40   3.96750609e+07  3.96748522e+07  5.06e-07 2.59e-09  1.22e-04   852s
  41   3.96750001e+07  3.96748554e+07  1.03e-06 2.40e-09  8.43e-05   873s
  42   3.96749755e+07  3.96748601e+07  9.84e-07 2.17e-09  6.73e-05   891s
  43   3.96749416e+07  3.96748655e+07  9.69e-07 1.82e-09  4.43e-05   909s

Barrier solved model in 43 iterations and 909.34 seconds (912.45 work units)
Optimal objective 3.96749416e+07


Root crossover log...

  376949 DPushes remaining with DInf 1.2237647e-01               911s
  113572 DPushes remaining with DInf 9.8387103e+01               916s
   87089 DPushes remaining with DInf 9.8387103e+01               920s
   68091 DPushes remaining with DInf 9.8387103e+01               925s
   51308 DPushes remaining with DInf 1.0984774e+02               931s
   40687 DPushes remaining with DInf 1.0448116e+02               935s
   32008 DPushes remaining with DInf 0.0000000e+00               940s
   25747 DPushes remaining with DInf 0.0000000e+00               946s
   23284 DPushes remaining with DInf 0.0000000e+00               951s
   20429 DPushes remaining with DInf 0.0000000e+00               956s
   17336 DPushes remaining with DInf 0.0000000e+00               960s
   13287 DPushes remaining with DInf 0.0000000e+00               966s
   10163 DPushes remaining with DInf 0.0000000e+00               971s
    6344 DPushes remaining with DInf 0.0000000e+00               975s
    4972 DPushes remaining with DInf 0.0000000e+00               981s
    3569 DPushes remaining with DInf 0.0000000e+00               986s
    1702 DPushes remaining with DInf 0.0000000e+00               991s
       0 DPushes remaining with DInf 0.0000000e+00               995s

  280349 PPushes remaining with PInf 1.0544034e+01               996s
   81872 PPushes remaining with PInf 6.8950652e+00              1002s
   28779 PPushes remaining with PInf 3.1016943e+01              1006s
   16994 PPushes remaining with PInf 2.4109264e+01              1010s
    9999 PPushes remaining with PInf 1.3220687e+01              1016s
    3560 PPushes remaining with PInf 1.0899209e+01              1020s
       0 PPushes remaining with PInf 1.0959500e+01              1025s

  Push phase complete: Pinf 1.0959500e+01, Dinf 1.2068154e+07   1025s


Root simplex log...

Iteration    Objective       Primal Inf.    Dual Inf.      Time
  445730    3.9674879e+07   0.000000e+00   1.206815e+07   1027s
  446644    3.9674877e+07   0.000000e+00   1.403983e+04   1032s
  447558    3.9674877e+07   0.000000e+00   1.438383e+03   1035s
  448903    3.9674876e+07   0.000000e+00   0.000000e+00   1041s
  448903    3.9674876e+07   0.000000e+00   0.000000e+00   1043s
Waiting for other threads to finish...        1110s
Concurrent spin time: 111.85s (can be avoided by choosing Method=3)

Solved with barrier

Root relaxation: objective 3.967488e+07, 448903 iterations, 1104.80 seconds (1022.09 work units)
Total elapsed time = 1155.21s

    Nodes    |    Current Node    |     Objective Bounds      |     Work
 Expl Unexpl |  Obj  Depth IntInf | Incumbent    BestBd   Gap | It/Node Time

     0     0 3.9675e+07    0  769          - 3.9675e+07      -     - 1181s
     0     0 3.9686e+07    0  636          - 3.9686e+07      -     - 1280s
     0     0 3.9687e+07    0  647          - 3.9687e+07      -     - 1318s
     0     0 3.9688e+07    0  646          - 3.9688e+07      -     - 1324s
     0     0 3.9688e+07    0  678          - 3.9688e+07      -     - 1329s
     0     0 3.9688e+07    0  693          - 3.9688e+07      -     - 1333s
     0     0 3.9702e+07    0  619          - 3.9702e+07      -     - 1366s
     0     0 3.9703e+07    0  651          - 3.9703e+07      -     - 1394s
     0     0 3.9703e+07    0  679          - 3.9703e+07      -     - 1399s
     0     0 3.9703e+07    0  632          - 3.9703e+07      -     - 1414s
     0     0 3.9703e+07    0  632          - 3.9703e+07      -     - 1417s
     0     0 3.9705e+07    0  606          - 3.9705e+07      -     - 1463s
     0     0 3.9705e+07    0  646          - 3.9705e+07      -     - 1514s
     0     0 3.9705e+07    0  652          - 3.9705e+07      -     - 1519s
     0     0 3.9705e+07    0  652          - 3.9705e+07      -     - 1522s
     0     0 3.9705e+07    0  619          - 3.9705e+07      -     - 1568s
     0     0 3.9705e+07    0  621          - 3.9705e+07      -     - 1570s
     0     0 3.9706e+07    0  655          - 3.9706e+07      -     - 1611s
     0     0 3.9706e+07    0  658          - 3.9706e+07      -     - 1614s
     0     0 3.9706e+07    0  654          - 3.9706e+07      -     - 1637s
     0     0 3.9707e+07    0  672          - 3.9707e+07      -     - 1675s
     0     0 3.9707e+07    0  675          - 3.9707e+07      -     - 1680s
     0     0 3.9707e+07    0  663          - 3.9707e+07      -     - 1683s
     0     0 3.9709e+07    0  671          - 3.9709e+07      -     - 1707s
     0     0 3.9712e+07    0  671          - 3.9712e+07      -     - 1730s
     0     0 3.9712e+07    0  673          - 3.9712e+07      -     - 1735s
     0     0 3.9715e+07    0  638          - 3.9715e+07      -     - 1760s
     0     0 3.9715e+07    0  647          - 3.9715e+07      -     - 1770s
     0     0 3.9715e+07    0  649          - 3.9715e+07      -     - 1774s
     0     0 3.9717e+07    0  678          - 3.9717e+07      -     - 1797s
     0     0 3.9717e+07    0  684          - 3.9717e+07      -     - 1817s
     0     0 3.9717e+07    0  684          - 3.9717e+07      -     - 1821s
     0     0 3.9717e+07    0  684          - 3.9717e+07      -     - 1824s
     0     0 3.9719e+07    0  645          - 3.9719e+07      -     - 1845s
     0     0 3.9719e+07    0  652          - 3.9719e+07      -     - 1878s
     0     0 3.9719e+07    0  652          - 3.9719e+07      -     - 1881s
     0     0 3.9719e+07    0  635          - 3.9719e+07      -     - 1901s
     0     0 3.9719e+07    0  635          - 3.9719e+07      -     - 1935s
     0     0 3.9719e+07    0  635          - 3.9719e+07      -     - 1938s
     0     0 3.9720e+07    0  591          - 3.9720e+07      -     - 1960s
     0     0 3.9720e+07    0  595          - 3.9720e+07      -     - 1981s
     0     0 3.9720e+07    0  599          - 3.9720e+07      -     - 2003s
     0     0 3.9720e+07    0  598          - 3.9720e+07      -     - 2004s
H    0     0                    1.036135e+10 3.9720e+07   100%     - 2005s
     0     0 3.9720e+07    0  616 1.0361e+10 3.9720e+07   100%     - 2007s
H    0     0                    1.036135e+10 3.9720e+07   100%     - 2034s
     0     0 3.9720e+07    0  523 1.0361e+10 3.9720e+07   100%     - 3273s
H    0     0                    8.685250e+09 3.9720e+07   100%     - 3377s
     0     0 3.9721e+07    0  428 8.6852e+09 3.9721e+07   100%     - 3421s
     0     0 3.9722e+07    0  435 8.6852e+09 3.9722e+07   100%     - 3443s
     0     0 3.9722e+07    0  442 8.6852e+09 3.9722e+07   100%     - 3448s
     0     0 3.9722e+07    0  455 8.6852e+09 3.9722e+07   100%     - 3450s
     0     0 3.9724e+07    0  426 8.6852e+09 3.9724e+07   100%     - 3479s
     0     0 3.9724e+07    0  421 8.6852e+09 3.9724e+07   100%     - 3481s
     0     0 3.9724e+07    0  423 8.6852e+09 3.9724e+07   100%     - 3508s
     0     0 3.9724e+07    0  423 8.6852e+09 3.9724e+07   100%     - 3511s
     0     0 3.9726e+07    0  410 8.6852e+09 3.9726e+07   100%     - 3554s
     0     0 3.9726e+07    0  414 8.6852e+09 3.9726e+07   100%     - 3594s
     0     0 3.9726e+07    0  414 8.6852e+09 3.9726e+07   100%     - 3597s
     0     0 3.9726e+07    0  414 8.6852e+09 3.9726e+07   100%     - 3599s
     0     0 3.9728e+07    0  420 8.6852e+09 3.9728e+07   100%     - 3642s
     0     0 3.9729e+07    0  462 8.6852e+09 3.9729e+07   100%     - 3651s
     0     0 3.9729e+07    0  424 8.6852e+09 3.9729e+07   100%     - 3654s
     0     0 3.9729e+07    0  406 8.6852e+09 3.9729e+07   100%     - 3680s
     0     0 3.9729e+07    0  409 8.6852e+09 3.9729e+07   100%     - 3727s
     0     0 3.9730e+07    0  409 8.6852e+09 3.9730e+07   100%     - 3751s
     0     0 3.9730e+07    0  411 8.6852e+09 3.9730e+07   100%     - 3772s
     0     0 3.9730e+07    0  411 8.6852e+09 3.9730e+07   100%     - 3775s
     0     0 3.9730e+07    0  410 8.6852e+09 3.9730e+07   100%     - 3796s
     0     0 3.9730e+07    0  406 8.6852e+09 3.9730e+07   100%     - 3837s
     0     0 3.9730e+07    0  410 8.6852e+09 3.9730e+07   100%     - 3840s
     0     0 3.9732e+07    0  403 8.6852e+09 3.9732e+07   100%     - 3864s
     0     0 3.9732e+07    0  403 8.6852e+09 3.9732e+07   100%     - 3894s
     0     0 3.9732e+07    0  378 8.6852e+09 3.9732e+07   100%     - 3915s
     0     0 3.9732e+07    0  375 8.6852e+09 3.9732e+07   100%     - 3965s
     0     0 3.9732e+07    0  375 8.6852e+09 3.9732e+07   100%     - 3968s
     0     0 3.9732e+07    0  375 8.6852e+09 3.9732e+07   100%     - 3989s
     0     0 3.9732e+07    0  375 8.6852e+09 3.9732e+07   100%     - 4016s
     0     0 3.9733e+07    0  378 8.6852e+09 3.9733e+07   100%     - 4036s
     0     0 3.9733e+07    0  379 8.6852e+09 3.9733e+07   100%     - 4076s
     0     0 3.9733e+07    0  378 8.6852e+09 3.9733e+07   100%     - 4097s
     0     0 3.9733e+07    0  378 8.6852e+09 3.9733e+07   100%     - 4112s
H    0     0                    6.699167e+08 3.9733e+07  94.1%     - 4263s
     0     1 3.9733e+07    0  378 6.6992e+08 3.9733e+07  94.1%     - 4308s
     1     2 3.9748e+07    1  359 6.6992e+08 3.9748e+07  94.1%   729 4321s
     2     4 3.9766e+07    2  455 6.6992e+08 3.9758e+07  94.1%  1426 4444s
     4     8 4.0188e+07    3  313 6.6992e+08 3.9766e+07  94.1% 14275 4550s
     8    16 4.0203e+07    4  315 6.6992e+08 3.9813e+07  94.1% 11224 4641s
    16    24 4.0222e+07    5  402 6.6992e+08 3.9841e+07  94.1%  9898 4672s
    24    30 4.0225e+07    5  395 6.6992e+08 3.9841e+07  94.1%  7406 4766s
H   32    34                    6.696707e+08 3.9843e+07  94.1%  6770 4850s
H   33    34                    6.694965e+08 3.9843e+07  94.0%  6597 4850s
H   35    34                    3.879288e+08 3.9843e+07  89.7%  6290 4850s
H   39    34                    3.879244e+08 3.9843e+07  89.7%  5724 4850s
    40    38 4.0225e+07    6  361 3.8792e+08 3.9843e+07  89.7%  5619 4878s
    51    44 4.0225e+07    7  366 3.8792e+08 3.9846e+07  89.7%  4492 4900s
    64    49 4.0229e+07    9  367 3.8792e+08 3.9847e+07  89.7%  3650 4953s
    79    54 4.0230e+07   11  370 3.8792e+08 3.9847e+07  89.7%  3054 4989s
    87    63 4.0238e+07   12  367 3.8792e+08 3.9847e+07  89.7%  2806 5017s
   103    71 4.0253e+07   13  329 3.8792e+08 3.9847e+07  89.7%  2419 5064s
H  105    71                    3.878853e+08 3.9847e+07  89.7%  2373 5064s
   115    76 4.0260e+07   14  316 3.8789e+08 3.9847e+07  89.7%  2201 5137s
   125    85 4.0261e+07   15  317 3.8789e+08 3.9847e+07  89.7%  2119 5164s
   141    91 4.0264e+07   17  326 3.8789e+08 3.9847e+07  89.7%  1902 5220s
H  143    91                    3.878715e+08 3.9847e+07  89.7%  1876 5221s
H  145    91                    3.877480e+08 3.9847e+07  89.7%  1852 5221s
H  146    91                    3.875001e+08 3.9847e+07  89.7%  1840 5221s
H  151    91                    3.869924e+08 3.9847e+07  89.7%  1780 5221s
H  155    91                    3.864311e+08 3.9847e+07  89.7%  1738 5221s
   156    98 4.0268e+07   19  328 3.8643e+08 3.9847e+07  89.7%  1727 5248s
   173   108 4.0270e+07   21  314 3.8643e+08 3.9847e+07  89.7%  1571 5277s
   196   121 4.0306e+07   24  286 3.8643e+08 3.9847e+07  89.7%  1408 5309s
   221   132 4.0310e+07   27  285 3.8643e+08 3.9847e+07  89.7%  1263 5338s
   244   137 4.0311e+07   30  288 3.8643e+08 3.9847e+07  89.7%  1150 5392s
H  246   137                    3.858370e+08 3.9847e+07  89.7%  1142 5392s
H  249   137                    3.853718e+08 3.9847e+07  89.7%  1129 5392s
H  250   137                    3.844418e+08 3.9847e+07  89.6%  1125 5393s
   258   151 4.0311e+07   32  265 3.8444e+08 3.9847e+07  89.6%  1091 5426s
   286   156 4.0311e+07   34  243 3.8444e+08 3.9847e+07  89.6%   994 5767s
   305   171 4.0315e+07   38  237 3.8444e+08 3.9847e+07  89.6%   939 5812s
   338   175 4.0316e+07   43  244 3.8444e+08 3.9847e+07  89.6%   867 5848s
   354   188 4.0316e+07   45  218 3.8444e+08 3.9847e+07  89.6%   841 5890s
H  386   191                    4.035995e+07 3.9847e+07  1.27%   779 7713s
H  387   191                    4.011431e+07 3.9847e+07  0.67%   777 7713s
H  388   191                    3.995070e+07 3.9847e+07  0.26%   775 7713s
H  390   191                    3.995036e+07 3.9847e+07  0.26%   771 7713s
H  391   191                    3.994998e+07 3.9847e+07  0.26%   770 7713s

Cutting planes:
  Learned: 7
  Gomory: 116
  Implied bound: 276
  MIR: 211
  StrongCG: 3
  Flow cover: 879
  RLT: 133
  Relax-and-lift: 23

Explored 394 nodes (1217072 simplex iterations) in 7714.12 seconds (8403.54 work units)
Thread count was 8 (of 80 available processors)

Solution count 10: 3.995e+07 3.995e+07 3.99504e+07 ... 3.86431e+08

Optimal solution found (tolerance 5.00e-02)
Best objective 3.994997536651e+07, best bound 3.984687200536e+07, gap 0.2581%

User-callback calls 2188657, time in user-callback 7.99 sec
